c Auto-generated by J. Le Maire and A. Talon
p cnf 9 16
9 1 -7 0
-3 -4 -2 0
-7 -6 -8 0
-5 -3 1 0
-4 8 -7 0
2 1 7 0
-3 -4 7 0
6 -2 -3 0
-4 -8 7 0
8 -9 -3 0
6 -9 6 0
1 8 -4 0
8 -3 -4 0
8 1 -6 0
7 -8 0
1 7 8 0
